c Arquivo convertido de dwt__361.mtx
p edge 361 1296
e 1 2
e 1 14
e 1 15
e 2 3
e 2 14
e 2 15
e 2 16
e 3 4
e 3 15
e 3 16
e 3 17
e 4 5
e 4 16
e 4 17
e 4 18
e 5 6
e 5 17
e 5 18
e 5 19
e 6 7
e 6 18
e 6 19
e 6 20
e 7 8
e 7 19
e 7 20
e 7 21
e 8 9
e 8 20
e 8 21
e 8 22
e 9 10
e 9 21
e 9 22
e 9 23
e 10 11
e 10 22
e 10 23
e 10 24
e 11 12
e 11 23
e 11 24
e 11 25
e 12 13
e 12 24
e 12 25
e 12 26
e 13 25
e 13 26
e 14 15
e 14 27
e 14 28
e 15 16
e 15 27
e 15 28
e 15 29
e 16 17
e 16 28
e 16 29
e 16 30
e 17 18
e 17 29
e 17 30
e 17 31
e 18 19
e 18 30
e 18 31
e 18 32
e 19 20
e 19 31
e 19 32
e 19 33
e 20 21
e 20 32
e 20 33
e 20 34
e 21 22
e 21 33
e 21 34
e 21 35
e 22 23
e 22 34
e 22 35
e 22 36
e 23 24
e 23 35
e 23 36
e 23 37
e 24 25
e 24 36
e 24 37
e 24 38
e 25 26
e 25 37
e 25 38
e 25 39
e 26 38
e 26 39
e 27 28
e 27 40
e 27 41
e 28 29
e 28 40
e 28 41
e 28 42
e 29 30
e 29 41
e 29 42
e 29 43
e 30 31
e 30 42
e 30 43
e 30 44
e 31 32
e 31 43
e 31 44
e 31 45
e 32 33
e 32 44
e 32 45
e 32 46
e 33 34
e 33 45
e 33 46
e 33 47
e 34 35
e 34 46
e 34 47
e 34 48
e 35 36
e 35 47
e 35 48
e 35 49
e 36 37
e 36 48
e 36 49
e 36 50
e 37 38
e 37 49
e 37 50
e 37 51
e 38 39
e 38 50
e 38 51
e 38 52
e 39 51
e 39 52
e 40 41
e 40 53
e 40 54
e 41 42
e 41 53
e 41 54
e 41 55
e 42 43
e 42 54
e 42 55
e 42 56
e 43 44
e 43 55
e 43 56
e 43 57
e 44 45
e 44 56
e 44 57
e 44 58
e 45 46
e 45 57
e 45 58
e 45 59
e 46 47
e 46 58
e 46 59
e 46 60
e 47 48
e 47 59
e 47 60
e 47 61
e 48 49
e 48 60
e 48 61
e 48 62
e 49 50
e 49 61
e 49 62
e 49 63
e 50 51
e 50 62
e 50 63
e 50 64
e 51 52
e 51 63
e 51 64
e 51 65
e 52 64
e 52 65
e 53 54
e 53 66
e 53 67
e 54 55
e 54 66
e 54 67
e 54 68
e 55 56
e 55 67
e 55 68
e 55 69
e 56 57
e 56 68
e 56 69
e 56 70
e 57 58
e 57 69
e 57 70
e 57 71
e 58 59
e 58 70
e 58 71
e 58 72
e 59 60
e 59 71
e 59 72
e 59 73
e 60 61
e 60 72
e 60 73
e 60 74
e 61 62
e 61 73
e 61 74
e 61 75
e 62 63
e 62 74
e 62 75
e 62 76
e 63 64
e 63 75
e 63 76
e 63 77
e 64 65
e 64 76
e 64 77
e 64 78
e 65 77
e 65 78
e 66 67
e 66 79
e 66 80
e 67 68
e 67 79
e 67 80
e 67 81
e 68 69
e 68 80
e 68 81
e 68 82
e 69 70
e 69 81
e 69 82
e 69 83
e 70 71
e 70 82
e 70 83
e 70 84
e 71 72
e 71 83
e 71 84
e 71 85
e 72 73
e 72 84
e 72 85
e 72 86
e 73 74
e 73 85
e 73 86
e 73 87
e 74 75
e 74 86
e 74 87
e 74 88
e 75 76
e 75 87
e 75 88
e 75 89
e 76 77
e 76 88
e 76 89
e 76 90
e 77 78
e 77 89
e 77 90
e 77 91
e 78 90
e 78 91
e 79 80
e 79 92
e 79 93
e 80 81
e 80 92
e 80 93
e 80 94
e 81 82
e 81 93
e 81 94
e 81 95
e 82 83
e 82 94
e 82 95
e 82 96
e 83 84
e 83 95
e 83 96
e 83 97
e 84 85
e 84 96
e 84 97
e 84 98
e 85 86
e 85 97
e 85 98
e 85 99
e 86 87
e 86 98
e 86 99
e 86 100
e 87 88
e 87 99
e 87 100
e 87 101
e 88 89
e 88 100
e 88 101
e 88 102
e 89 90
e 89 101
e 89 102
e 89 103
e 90 91
e 90 102
e 90 103
e 90 104
e 91 103
e 91 104
e 92 93
e 92 105
e 92 106
e 93 94
e 93 105
e 93 106
e 93 107
e 94 95
e 94 106
e 94 107
e 94 108
e 95 96
e 95 107
e 95 108
e 95 109
e 96 97
e 96 108
e 96 109
e 96 110
e 97 98
e 97 109
e 97 110
e 97 111
e 98 99
e 98 110
e 98 111
e 98 112
e 99 100
e 99 111
e 99 112
e 99 113
e 100 101
e 100 112
e 100 113
e 100 114
e 101 102
e 101 113
e 101 114
e 101 115
e 102 103
e 102 114
e 102 115
e 102 116
e 103 104
e 103 115
e 103 116
e 103 117
e 104 116
e 104 117
e 105 106
e 105 118
e 105 119
e 106 107
e 106 118
e 106 119
e 106 120
e 107 108
e 107 119
e 107 120
e 107 121
e 108 109
e 108 120
e 108 121
e 108 122
e 109 110
e 109 121
e 109 122
e 109 123
e 110 111
e 110 122
e 110 123
e 110 124
e 111 112
e 111 123
e 111 124
e 111 125
e 112 113
e 112 124
e 112 125
e 112 126
e 113 114
e 113 125
e 113 126
e 113 127
e 114 115
e 114 126
e 114 127
e 114 128
e 115 116
e 115 127
e 115 128
e 115 129
e 116 117
e 116 128
e 116 129
e 116 130
e 117 129
e 117 130
e 118 119
e 118 131
e 118 132
e 119 120
e 119 131
e 119 132
e 119 133
e 120 121
e 120 132
e 120 133
e 120 134
e 121 122
e 121 133
e 121 134
e 121 135
e 122 123
e 122 134
e 122 135
e 122 136
e 123 124
e 123 135
e 123 136
e 123 137
e 124 125
e 124 136
e 124 137
e 124 138
e 125 126
e 125 137
e 125 138
e 125 139
e 126 127
e 126 138
e 126 139
e 126 140
e 127 128
e 127 139
e 127 140
e 127 141
e 128 129
e 128 140
e 128 141
e 128 142
e 129 130
e 129 141
e 129 142
e 129 143
e 130 142
e 130 143
e 131 132
e 131 144
e 131 145
e 132 133
e 132 144
e 132 145
e 132 146
e 133 134
e 133 145
e 133 146
e 133 147
e 134 135
e 134 146
e 134 147
e 134 148
e 135 136
e 135 147
e 135 148
e 135 149
e 136 137
e 136 148
e 136 149
e 136 150
e 137 138
e 137 149
e 137 150
e 137 151
e 138 139
e 138 150
e 138 151
e 138 152
e 139 140
e 139 151
e 139 152
e 139 153
e 140 141
e 140 152
e 140 153
e 140 154
e 141 142
e 141 153
e 141 154
e 141 155
e 142 143
e 142 154
e 142 155
e 142 156
e 143 155
e 143 156
e 144 145
e 144 157
e 144 158
e 145 146
e 145 157
e 145 158
e 145 159
e 146 147
e 146 158
e 146 159
e 146 160
e 147 148
e 147 159
e 147 160
e 147 161
e 148 149
e 148 160
e 148 161
e 148 162
e 149 150
e 149 161
e 149 162
e 149 163
e 150 151
e 150 162
e 150 163
e 150 164
e 151 152
e 151 163
e 151 164
e 151 165
e 152 153
e 152 164
e 152 165
e 152 166
e 153 154
e 153 165
e 153 166
e 153 167
e 154 155
e 154 166
e 154 167
e 154 168
e 155 156
e 155 167
e 155 168
e 155 169
e 156 168
e 156 169
e 157 158
e 157 170
e 157 171
e 158 159
e 158 170
e 158 171
e 158 172
e 159 160
e 159 171
e 159 172
e 159 173
e 160 161
e 160 172
e 160 173
e 160 174
e 161 162
e 161 173
e 161 174
e 161 175
e 162 163
e 162 174
e 162 175
e 162 176
e 163 164
e 163 175
e 163 176
e 163 177
e 164 165
e 164 176
e 164 177
e 164 178
e 165 166
e 165 177
e 165 178
e 165 179
e 166 167
e 166 178
e 166 179
e 166 180
e 167 168
e 167 179
e 167 180
e 167 181
e 168 169
e 168 180
e 168 181
e 168 182
e 169 181
e 169 182
e 170 171
e 170 183
e 170 184
e 171 172
e 171 183
e 171 184
e 171 185
e 172 173
e 172 184
e 172 185
e 172 186
e 173 174
e 173 185
e 173 186
e 173 187
e 174 175
e 174 186
e 174 187
e 174 188
e 175 176
e 175 187
e 175 188
e 175 189
e 176 177
e 176 188
e 176 189
e 176 190
e 177 178
e 177 189
e 177 190
e 177 191
e 178 179
e 178 190
e 178 191
e 178 192
e 179 180
e 179 191
e 179 192
e 179 193
e 180 181
e 180 192
e 180 193
e 180 194
e 181 182
e 181 193
e 181 194
e 181 195
e 182 194
e 182 195
e 183 184
e 183 196
e 183 197
e 184 185
e 184 196
e 184 197
e 184 198
e 185 186
e 185 197
e 185 198
e 185 199
e 186 187
e 186 198
e 186 199
e 186 200
e 187 188
e 187 199
e 187 200
e 187 201
e 188 189
e 188 200
e 188 201
e 188 202
e 189 190
e 189 201
e 189 202
e 189 203
e 190 191
e 190 202
e 190 203
e 190 204
e 191 192
e 191 203
e 191 204
e 191 205
e 192 193
e 192 204
e 192 205
e 192 206
e 193 194
e 193 205
e 193 206
e 193 207
e 194 195
e 194 206
e 194 207
e 194 208
e 195 207
e 195 208
e 196 197
e 196 209
e 196 210
e 197 198
e 197 209
e 197 210
e 197 211
e 198 199
e 198 210
e 198 211
e 198 212
e 199 200
e 199 211
e 199 212
e 199 213
e 200 201
e 200 212
e 200 213
e 200 214
e 201 202
e 201 213
e 201 214
e 201 215
e 202 203
e 202 214
e 202 215
e 202 216
e 203 204
e 203 215
e 203 216
e 203 217
e 204 205
e 204 216
e 204 217
e 204 218
e 205 206
e 205 217
e 205 218
e 205 219
e 206 207
e 206 218
e 206 219
e 206 220
e 207 208
e 207 219
e 207 220
e 207 221
e 208 220
e 208 221
e 209 210
e 209 222
e 209 223
e 210 211
e 210 222
e 210 223
e 210 224
e 211 212
e 211 223
e 211 224
e 211 225
e 212 213
e 212 224
e 212 225
e 212 226
e 213 214
e 213 225
e 213 226
e 213 227
e 214 215
e 214 226
e 214 227
e 214 228
e 215 216
e 215 227
e 215 228
e 215 229
e 216 217
e 216 228
e 216 229
e 216 230
e 217 218
e 217 229
e 217 230
e 217 231
e 218 219
e 218 230
e 218 231
e 218 232
e 219 220
e 219 231
e 219 232
e 219 233
e 220 221
e 220 232
e 220 233
e 220 234
e 221 233
e 221 234
e 222 223
e 222 235
e 222 236
e 223 224
e 223 235
e 223 236
e 223 237
e 224 225
e 224 236
e 224 237
e 224 238
e 225 226
e 225 237
e 225 238
e 225 239
e 226 227
e 226 238
e 226 239
e 226 240
e 227 228
e 227 239
e 227 240
e 227 241
e 228 229
e 228 240
e 228 241
e 228 242
e 229 230
e 229 241
e 229 242
e 229 243
e 230 231
e 230 242
e 230 243
e 230 244
e 231 232
e 231 243
e 231 244
e 231 245
e 232 233
e 232 244
e 232 245
e 232 246
e 233 234
e 233 245
e 233 246
e 233 247
e 234 246
e 234 247
e 235 236
e 235 248
e 235 249
e 236 237
e 236 248
e 236 249
e 236 250
e 237 238
e 237 249
e 237 250
e 237 251
e 238 239
e 238 250
e 238 251
e 238 252
e 239 240
e 239 251
e 239 252
e 239 253
e 240 241
e 240 252
e 240 253
e 240 254
e 241 242
e 241 253
e 241 254
e 241 255
e 242 243
e 242 254
e 242 255
e 242 256
e 243 244
e 243 255
e 243 256
e 243 257
e 244 245
e 244 256
e 244 257
e 244 258
e 245 246
e 245 257
e 245 258
e 245 259
e 246 247
e 246 258
e 246 259
e 246 260
e 247 259
e 247 260
e 248 249
e 248 261
e 248 262
e 249 250
e 249 261
e 249 262
e 249 263
e 250 251
e 250 262
e 250 263
e 250 264
e 251 252
e 251 263
e 251 264
e 251 265
e 252 253
e 252 264
e 252 265
e 252 266
e 253 254
e 253 265
e 253 266
e 253 267
e 254 255
e 254 266
e 254 267
e 254 268
e 255 256
e 255 267
e 255 268
e 255 269
e 256 257
e 256 268
e 256 269
e 256 270
e 257 258
e 257 269
e 257 270
e 257 271
e 258 259
e 258 270
e 258 271
e 258 272
e 259 260
e 259 271
e 259 272
e 259 273
e 260 272
e 260 273
e 261 262
e 261 274
e 261 275
e 262 263
e 262 274
e 262 275
e 262 276
e 263 264
e 263 275
e 263 276
e 263 277
e 264 265
e 264 276
e 264 277
e 264 278
e 265 266
e 265 277
e 265 278
e 265 279
e 266 267
e 266 278
e 266 279
e 266 280
e 267 268
e 267 279
e 267 280
e 267 281
e 268 269
e 268 280
e 268 281
e 268 282
e 269 270
e 269 281
e 269 282
e 269 283
e 270 271
e 270 282
e 270 283
e 270 284
e 271 272
e 271 283
e 271 284
e 271 285
e 272 273
e 272 284
e 272 285
e 272 286
e 273 285
e 273 286
e 274 275
e 274 287
e 274 288
e 275 276
e 275 287
e 275 288
e 275 289
e 276 277
e 276 288
e 276 289
e 276 290
e 277 278
e 277 289
e 277 290
e 277 291
e 278 279
e 278 290
e 278 291
e 278 292
e 279 280
e 279 291
e 279 292
e 279 293
e 280 281
e 280 292
e 280 293
e 280 294
e 281 282
e 281 293
e 281 294
e 281 295
e 282 283
e 282 294
e 282 295
e 282 296
e 283 284
e 283 295
e 283 296
e 283 297
e 284 285
e 284 296
e 284 297
e 284 298
e 285 286
e 285 297
e 285 298
e 285 299
e 286 298
e 286 299
e 287 288
e 287 300
e 287 301
e 288 289
e 288 300
e 288 301
e 288 302
e 289 290
e 289 301
e 289 302
e 289 303
e 290 291
e 290 302
e 290 303
e 290 304
e 291 292
e 291 303
e 291 304
e 291 305
e 292 293
e 292 304
e 292 305
e 292 306
e 293 294
e 293 305
e 293 306
e 293 307
e 294 295
e 294 306
e 294 307
e 294 308
e 295 296
e 295 307
e 295 308
e 295 309
e 296 297
e 296 308
e 296 309
e 296 310
e 297 298
e 297 309
e 297 310
e 297 311
e 298 299
e 298 310
e 298 311
e 298 312
e 299 311
e 299 312
e 300 301
e 300 349
e 300 350
e 301 302
e 301 349
e 301 350
e 301 351
e 302 303
e 302 350
e 302 351
e 302 352
e 303 304
e 303 351
e 303 352
e 303 353
e 304 305
e 304 352
e 304 353
e 304 354
e 305 306
e 305 353
e 305 354
e 305 355
e 306 307
e 306 354
e 306 355
e 306 356
e 307 308
e 307 355
e 307 356
e 307 357
e 308 309
e 308 356
e 308 357
e 308 358
e 309 310
e 309 357
e 309 358
e 309 359
e 310 311
e 310 358
e 310 359
e 310 360
e 311 312
e 311 359
e 311 360
e 311 361
e 312 360
e 312 361
e 313 314
e 313 315
e 313 316
e 314 315
e 314 317
e 314 318
e 315 316
e 315 318
e 315 319
e 315 320
e 316 320
e 316 321
e 317 318
e 317 322
e 317 323
e 318 319
e 318 323
e 318 324
e 319 320
e 319 324
e 319 325
e 319 326
e 320 321
e 320 326
e 320 327
e 321 327
e 321 328
e 322 323
e 322 329
e 322 330
e 323 324
e 323 330
e 323 331
e 324 325
e 324 331
e 324 332
e 325 326
e 325 332
e 325 333
e 325 334
e 326 327
e 326 334
e 326 335
e 327 328
e 327 335
e 327 336
e 328 336
e 328 337
e 329 330
e 329 338
e 329 339
e 330 331
e 330 339
e 330 340
e 331 332
e 331 340
e 331 341
e 332 333
e 332 341
e 332 342
e 333 334
e 333 342
e 333 343
e 333 344
e 334 335
e 334 344
e 334 345
e 335 336
e 335 345
e 335 346
e 336 337
e 336 346
e 336 347
e 337 347
e 337 348
e 338 339
e 338 349
e 338 350
e 339 340
e 339 350
e 339 351
e 340 341
e 340 351
e 340 352
e 341 342
e 341 352
e 341 353
e 342 343
e 342 353
e 342 354
e 343 344
e 343 354
e 343 355
e 343 356
e 344 345
e 344 356
e 344 357
e 345 346
e 345 357
e 345 358
e 346 347
e 346 358
e 346 359
e 347 348
e 347 359
e 347 360
e 348 360
e 348 361
e 349 350
e 350 351
e 351 352
e 352 353
e 353 354
e 354 355
e 355 356
e 356 357
e 357 358
e 358 359
e 359 360
e 360 361
